NAME /Users/henri/Research/solvers/instances/idol-instances/robust/collection/spp_dkp_Lefebvre_et_al_2026/shortest_path_8_5/uncertainty_sets/discrete_knapsack
ROWS
 N  OBJ
 L  primal_lower
COLUMNS
    MARKER    'MARKER'                 'INTORG'
    y[0,1]     OBJ        0
    y[0,1]     primal_lower -0.52
    y[0,2]     OBJ        0
    y[0,2]     primal_lower -4.49
    y[0,3]     OBJ        0
    y[0,3]     primal_lower -3.36
    y[0,4]     OBJ        0
    y[0,4]     primal_lower -1.62
    y[1,0]     OBJ        0
    y[1,0]     primal_lower -3.26
    y[1,2]     OBJ        0
    y[1,2]     primal_lower -3.69
    y[1,3]     OBJ        0
    y[1,3]     primal_lower -2.98
    y[1,4]     OBJ        0
    y[1,4]     primal_lower -1.91
    y[1,5]     OBJ        0
    y[1,5]     primal_lower -3.25
    y[1,6]     OBJ        0
    y[1,6]     primal_lower -1.14
    y[1,7]     OBJ        0
    y[1,7]     primal_lower -1.18
    y[2,0]     OBJ        0
    y[2,0]     primal_lower -0.11
    y[2,1]     OBJ        0
    y[2,1]     primal_lower -0.45
    y[2,3]     OBJ        0
    y[2,3]     primal_lower -1.38
    y[2,4]     OBJ        0
    y[2,4]     primal_lower -2.95
    y[2,5]     OBJ        0
    y[2,5]     primal_lower -1.48
    y[2,6]     OBJ        0
    y[2,6]     primal_lower -0.85
    y[2,7]     OBJ        0
    y[2,7]     primal_lower -4.23
    y[3,0]     OBJ        0
    y[3,0]     primal_lower -1.25
    y[3,1]     OBJ        0
    y[3,1]     primal_lower -1.26
    y[3,2]     OBJ        0
    y[3,2]     primal_lower -4.4
    y[3,4]     OBJ        0
    y[3,4]     primal_lower -0.59
    y[3,5]     OBJ        0
    y[3,5]     primal_lower -3.44
    y[3,7]     OBJ        0
    y[3,7]     primal_lower -0.02
    y[4,0]     OBJ        0
    y[4,0]     primal_lower -3.95
    y[4,1]     OBJ        0
    y[4,1]     primal_lower -3.21
    y[4,2]     OBJ        0
    y[4,2]     primal_lower -2.55
    y[4,3]     OBJ        0
    y[4,3]     primal_lower -4.31
    y[4,5]     OBJ        0
    y[4,5]     primal_lower -2.36
    y[4,7]     OBJ        0
    y[4,7]     primal_lower -0.82
    y[5,1]     OBJ        0
    y[5,1]     primal_lower -2.47
    y[5,2]     OBJ        0
    y[5,2]     primal_lower -1.35
    y[5,3]     OBJ        0
    y[5,3]     primal_lower -0.05
    y[5,4]     OBJ        0
    y[5,4]     primal_lower -4.07
    y[5,6]     OBJ        0
    y[5,6]     primal_lower -3.03
    y[5,7]     OBJ        0
    y[5,7]     primal_lower -4.34
    y[6,1]     OBJ        0
    y[6,1]     primal_lower -3.43
    y[6,2]     OBJ        0
    y[6,2]     primal_lower -1.23
    y[6,5]     OBJ        0
    y[6,5]     primal_lower -1.67
    y[6,7]     OBJ        0
    y[6,7]     primal_lower -2.43
    y[7,1]     OBJ        0
    y[7,1]     primal_lower -2.52
    y[7,2]     OBJ        0
    y[7,2]     primal_lower -1.19
    y[7,3]     OBJ        0
    y[7,3]     primal_lower -0.8
    y[7,4]     OBJ        0
    y[7,4]     primal_lower -1.66
    y[7,5]     OBJ        0
    y[7,5]     primal_lower -0.65
    y[7,6]     OBJ        0
    y[7,6]     primal_lower -1.79
    u[0,1]     OBJ        0
    u[0,1]     primal_lower 32
    u[0,2]     OBJ        0
    u[0,2]     primal_lower 49
    u[0,3]     OBJ        0
    u[0,3]     primal_lower 89
    u[0,4]     OBJ        0
    u[0,4]     primal_lower 93
    u[1,0]     OBJ        0
    u[1,0]     primal_lower 55
    u[1,2]     OBJ        0
    u[1,2]     primal_lower 67
    u[1,3]     OBJ        0
    u[1,3]     primal_lower 24
    u[1,4]     OBJ        0
    u[1,4]     primal_lower 99
    u[1,5]     OBJ        0
    u[1,5]     primal_lower 33
    u[1,6]     OBJ        0
    u[1,6]     primal_lower 64
    u[1,7]     OBJ        0
    u[1,7]     primal_lower 94
    u[2,0]     OBJ        0
    u[2,0]     primal_lower 84
    u[2,1]     OBJ        0
    u[2,1]     primal_lower 10
    u[2,3]     OBJ        0
    u[2,3]     primal_lower 60
    u[2,4]     OBJ        0
    u[2,4]     primal_lower 44
    u[2,5]     OBJ        0
    u[2,5]     primal_lower 30
    u[2,6]     OBJ        0
    u[2,6]     primal_lower 82
    u[2,7]     OBJ        0
    u[2,7]     primal_lower 13
    u[3,0]     OBJ        0
    u[3,0]     primal_lower 59
    u[3,1]     OBJ        0
    u[3,1]     primal_lower 25
    u[3,2]     OBJ        0
    u[3,2]     primal_lower 88
    u[3,4]     OBJ        0
    u[3,4]     primal_lower 50
    u[3,5]     OBJ        0
    u[3,5]     primal_lower 12
    u[3,7]     OBJ        0
    u[3,7]     primal_lower 10
    u[4,0]     OBJ        0
    u[4,0]     primal_lower 41
    u[4,1]     OBJ        0
    u[4,1]     primal_lower 66
    u[4,2]     OBJ        0
    u[4,2]     primal_lower 73
    u[4,3]     OBJ        0
    u[4,3]     primal_lower 81
    u[4,5]     OBJ        0
    u[4,5]     primal_lower 17
    u[4,7]     OBJ        0
    u[4,7]     primal_lower 6
    u[5,1]     OBJ        0
    u[5,1]     primal_lower 85
    u[5,2]     OBJ        0
    u[5,2]     primal_lower 79
    u[5,3]     OBJ        0
    u[5,3]     primal_lower 6
    u[5,4]     OBJ        0
    u[5,4]     primal_lower 45
    u[5,6]     OBJ        0
    u[5,6]     primal_lower 93
    u[5,7]     OBJ        0
    u[5,7]     primal_lower 9
    u[6,1]     OBJ        0
    u[6,1]     primal_lower 70
    u[6,2]     OBJ        0
    u[6,2]     primal_lower 73
    u[6,5]     OBJ        0
    u[6,5]     primal_lower 11
    u[6,7]     OBJ        0
    u[6,7]     primal_lower 32
    u[7,1]     OBJ        0
    u[7,1]     primal_lower 18
    u[7,2]     OBJ        0
    u[7,2]     primal_lower 92
    u[7,3]     OBJ        0
    u[7,3]     primal_lower 92
    u[7,4]     OBJ        0
    u[7,4]     primal_lower 22
    u[7,5]     OBJ        0
    u[7,5]     primal_lower 45
    u[7,6]     OBJ        0
    u[7,6]     primal_lower 19
    MARKER    'MARKER'                 'INTEND'
RHS
    RHS       primal_lower 212
BOUNDS
 LI BND       y[0,1]     0
 UI BND       y[0,1]     1
 LI BND       y[0,2]     0
 UI BND       y[0,2]     1
 LI BND       y[0,3]     0
 UI BND       y[0,3]     1
 LI BND       y[0,4]     0
 UI BND       y[0,4]     1
 LI BND       y[1,0]     0
 UI BND       y[1,0]     1
 LI BND       y[1,2]     0
 UI BND       y[1,2]     1
 LI BND       y[1,3]     0
 UI BND       y[1,3]     1
 LI BND       y[1,4]     0
 UI BND       y[1,4]     1
 LI BND       y[1,5]     0
 UI BND       y[1,5]     1
 LI BND       y[1,6]     0
 UI BND       y[1,6]     1
 LI BND       y[1,7]     0
 UI BND       y[1,7]     1
 LI BND       y[2,0]     0
 UI BND       y[2,0]     1
 LI BND       y[2,1]     0
 UI BND       y[2,1]     1
 LI BND       y[2,3]     0
 UI BND       y[2,3]     1
 LI BND       y[2,4]     0
 UI BND       y[2,4]     1
 LI BND       y[2,5]     0
 UI BND       y[2,5]     1
 LI BND       y[2,6]     0
 UI BND       y[2,6]     1
 LI BND       y[2,7]     0
 UI BND       y[2,7]     1
 LI BND       y[3,0]     0
 UI BND       y[3,0]     1
 LI BND       y[3,1]     0
 UI BND       y[3,1]     1
 LI BND       y[3,2]     0
 UI BND       y[3,2]     1
 LI BND       y[3,4]     0
 UI BND       y[3,4]     1
 LI BND       y[3,5]     0
 UI BND       y[3,5]     1
 LI BND       y[3,7]     0
 UI BND       y[3,7]     1
 LI BND       y[4,0]     0
 UI BND       y[4,0]     1
 LI BND       y[4,1]     0
 UI BND       y[4,1]     1
 LI BND       y[4,2]     0
 UI BND       y[4,2]     1
 LI BND       y[4,3]     0
 UI BND       y[4,3]     1
 LI BND       y[4,5]     0
 UI BND       y[4,5]     1
 LI BND       y[4,7]     0
 UI BND       y[4,7]     1
 LI BND       y[5,1]     0
 UI BND       y[5,1]     1
 LI BND       y[5,2]     0
 UI BND       y[5,2]     1
 LI BND       y[5,3]     0
 UI BND       y[5,3]     1
 LI BND       y[5,4]     0
 UI BND       y[5,4]     1
 LI BND       y[5,6]     0
 UI BND       y[5,6]     1
 LI BND       y[5,7]     0
 UI BND       y[5,7]     1
 LI BND       y[6,1]     0
 UI BND       y[6,1]     1
 LI BND       y[6,2]     0
 UI BND       y[6,2]     1
 LI BND       y[6,5]     0
 UI BND       y[6,5]     1
 LI BND       y[6,7]     0
 UI BND       y[6,7]     1
 LI BND       y[7,1]     0
 UI BND       y[7,1]     1
 LI BND       y[7,2]     0
 UI BND       y[7,2]     1
 LI BND       y[7,3]     0
 UI BND       y[7,3]     1
 LI BND       y[7,4]     0
 UI BND       y[7,4]     1
 LI BND       y[7,5]     0
 UI BND       y[7,5]     1
 LI BND       y[7,6]     0
 UI BND       y[7,6]     1
 LI BND       u[0,1]     0
 UI BND       u[0,1]     1
 LI BND       u[0,2]     0
 UI BND       u[0,2]     1
 LI BND       u[0,3]     0
 UI BND       u[0,3]     1
 LI BND       u[0,4]     0
 UI BND       u[0,4]     1
 LI BND       u[1,0]     0
 UI BND       u[1,0]     1
 LI BND       u[1,2]     0
 UI BND       u[1,2]     1
 LI BND       u[1,3]     0
 UI BND       u[1,3]     1
 LI BND       u[1,4]     0
 UI BND       u[1,4]     1
 LI BND       u[1,5]     0
 UI BND       u[1,5]     1
 LI BND       u[1,6]     0
 UI BND       u[1,6]     1
 LI BND       u[1,7]     0
 UI BND       u[1,7]     1
 LI BND       u[2,0]     0
 UI BND       u[2,0]     1
 LI BND       u[2,1]     0
 UI BND       u[2,1]     1
 LI BND       u[2,3]     0
 UI BND       u[2,3]     1
 LI BND       u[2,4]     0
 UI BND       u[2,4]     1
 LI BND       u[2,5]     0
 UI BND       u[2,5]     1
 LI BND       u[2,6]     0
 UI BND       u[2,6]     1
 LI BND       u[2,7]     0
 UI BND       u[2,7]     1
 LI BND       u[3,0]     0
 UI BND       u[3,0]     1
 LI BND       u[3,1]     0
 UI BND       u[3,1]     1
 LI BND       u[3,2]     0
 UI BND       u[3,2]     1
 LI BND       u[3,4]     0
 UI BND       u[3,4]     1
 LI BND       u[3,5]     0
 UI BND       u[3,5]     1
 LI BND       u[3,7]     0
 UI BND       u[3,7]     1
 LI BND       u[4,0]     0
 UI BND       u[4,0]     1
 LI BND       u[4,1]     0
 UI BND       u[4,1]     1
 LI BND       u[4,2]     0
 UI BND       u[4,2]     1
 LI BND       u[4,3]     0
 UI BND       u[4,3]     1
 LI BND       u[4,5]     0
 UI BND       u[4,5]     1
 LI BND       u[4,7]     0
 UI BND       u[4,7]     1
 LI BND       u[5,1]     0
 UI BND       u[5,1]     1
 LI BND       u[5,2]     0
 UI BND       u[5,2]     1
 LI BND       u[5,3]     0
 UI BND       u[5,3]     1
 LI BND       u[5,4]     0
 UI BND       u[5,4]     1
 LI BND       u[5,6]     0
 UI BND       u[5,6]     1
 LI BND       u[5,7]     0
 UI BND       u[5,7]     1
 LI BND       u[6,1]     0
 UI BND       u[6,1]     1
 LI BND       u[6,2]     0
 UI BND       u[6,2]     1
 LI BND       u[6,5]     0
 UI BND       u[6,5]     1
 LI BND       u[6,7]     0
 UI BND       u[6,7]     1
 LI BND       u[7,1]     0
 UI BND       u[7,1]     1
 LI BND       u[7,2]     0
 UI BND       u[7,2]     1
 LI BND       u[7,3]     0
 UI BND       u[7,3]     1
 LI BND       u[7,4]     0
 UI BND       u[7,4]     1
 LI BND       u[7,5]     0
 UI BND       u[7,5]     1
 LI BND       u[7,6]     0
 UI BND       u[7,6]     1
ENDATA
